33D32945 STP File, STP Format Version 1.0

SECTION Comments
Name "edge_n10_d2_s5"
Problem "Euclidean Steiner Tree Problem"
Remark "Generated with STPGenerator. 2 dimensions."
END

SECTION Graph
Nodes 10
END

SECTION Coordinates
DD 0 0.2747455962 0.2747455962
DD 1 0.0464677648 0.0464677648
DD 2 0.9927552245 0.9927552245
DD 3 0.0800304450 0.0800304450
DD 4 0.1476887968 0.1476887968
DD 5 0.0796446726 0.0796446726
DD 6 0.2805664764 0.2805664764
DD 7 0.4484554052 0.4484554052
DD 8 0.4982478328 0.4982478328
DD 9 0.8940018629 0.8940018629
END
